\ This file has been generated by DOcplex
\ ENCODING=ISO-8859-1
\Problem name: <decpomdp.DecPOMDP object at 0x1447a7550> problem

Maximize
 obj: V
Subject To
 c1: V + 121.678782646234 a0_0 + 138 a0_1 + 138 a0_2 <= 0
 c2: V + 138 a0_0 + 107 a0_1 + 192 a0_2 <= 0
 c3: V + 138 a0_0 + 192 a0_1 + 107 a0_2 <= 0
 c4: a0_0 + a0_1 + a0_2 = 1

Bounds
       a0_0 <= 1
       a0_1 <= 1
       a0_2 <= 1
       V Free
End
